NAME : local_10
TYPE : ATSP
DIMENSION : 11
EDGE_WEIGHT_TYPE : EXPLICIT
EDGE_WEIGHT_FORMAT : FULL_MATRIX
EDGE_WEIGHT_SECTION
0 730 10000000 798 629 10000000 783 910 10000000 10000000 10000000 
0 0 736 10000000 890 802 369 536 893 904 1036 
0 736 0 10000000 10000000 671 694 908 10000000 428 974 
0 10000000 10000000 0 347 866 965 10000000 10000000 10000000 560 
0 890 10000000 347 0 691 707 10000000 10000000 10000000 658 
0 802 693 866 691 0 503 10000000 10000000 498 590 
0 369 694 965 707 503 0 852 10000000 682 877 
0 536 908 10000000 10000000 10000000 852 0 445 10000000 1051 
0 893 10000000 10000000 10000000 10000000 10000000 445 0 10000000 881 
0 904 428 10000000 10000000 498 682 10000000 10000000 0 1027 
0 10000000 10000000 10000000 10000000 10000000 10000000 10000000 10000000 10000000 0 
EOF